This is MiniSat 2.0 beta
============================[ Problem Statistics ]=============================
|                                                                             |
|  Number of variables:  12                                                   |
|  Number of clauses:    13                                                   |
|  Parsing time:         0.00         s                                       |
Solved by unit propagation
